20
10
980742
0
0
14 7 16 13 9 10 12 10 6 12
1
0
103 134 99 104 135 92 131 103 120 102
2
0
14 18 21 20 12 17 13 10 15 13
3
0
128 150 111 103 80 102 127 85 96 120
4
0
55 65 48 47 44 51 82 62 47 96
5
0
13 13 18 19 21 26 11 13 28 18
6
0
21 31 16 26 30 44 24 26 22 32
7
0
18 21 13 19 15 16 29 13 18 20
8
0
138 86 138 114 93 138 78 134 129 81
9
0
4 3 4 7 5 3 5 3 6 5
10
0
29 44 29 21 22 16 16 15 21 26
11
0
41 28 31 34 30 28 23 32 25 26
12
0
66 70 72 84 83 64 64 61 58 66
13
0
37 31 40 45 33 22 33 44 34 42
14
0
9 14 13 13 22 14 19 21 24 27
15
0
80 84 73 85 55 55 91 86 61 89
16
0
17 16 10 10 7 13 9 9 13 9
17
0
106 68 109 112 90 80 72 86 93 89
18
0
24 16 20 19 19 26 15 14 13 21
19
0
51 60 75 41 48 62 53 69 54 61
